Route #1: 21 34 15 8 3 26 36
Route #2: 22 28 9 20 5 17 33 23 10 39 29
Route #3: 
Route #4: 1 27 25 30
Route #5: 14 4 13 32 38
Route #6: 12 18 2 37 19 35 11
Route #7: 31 24 7 6 16
cost 1311.0897141095843
